p cnf 21 8
a 1 0
e 2 3 0
a 4 5 0
e 6 7 8 0
a 9 10 0
e 11 0
a 12 13 14 0
e 15 0
a 16 0
e 17 18 19 0
a 20 0
e 21 0
-1 -3 5 14 19 0
-2 12 20 9 -11 0
20 -3 0
2 14 18 -11 -21 0
21 -13 -18 -9 1 0
11 16 10 0
3 -20 8 15 -19 0
21 8 -20 -18 0
